
  32    4
  10   10   10   10

   0   0   0   0   0   7 2 13 27 28 29 30 31 
  10  10  10  10  10   1 3 
   9  10  10  10  10   2 26 4 
   8  10  10  10  10   2 25 5 
   4  10  10  10  10   4 24 23 22 6 
   5  10  10  10  10   3 21 20 7 
   1  10  10  10  10   1 8 
  10  10  10  10  10   1 9 
   6  10  10  10  10   2 19 10 
   3  10  10  10  10   1 11 
   3  10  10  10  10   1 12 
   4  10  10  10  10   2 18 14 
   8  10  10  10  10   1 14 
   5  10  10  10  10   1 15 
   5  10  10  10  10   1 16 
   3  10  10  10  10   1 17 
   4  10  10  10  10   1 32
   2  10  10  10  10   1 32
   4  10  10  10  10   1 32
   1  10  10  10  10   1 32
   9  10  10  10  10   1 32
   3  10  10  10  10   1 32
   4  10  10  10  10   1 32
   9  10  10  10  10   1 32
   7  10  10  10  10   1 32
   8  10  10  10  10   1 32
   7  10  10  10  10   1 32
   4  10  10  10  10   1 32
   9  10  10  10  10   1 32
   4  10  10  10  10   1 32
   8  10  10  10  10   1 32
   0   0   0   0   0   0 
